12 12 0 0 0
1 0.0000000000000000e+00 0.0000000000000000e+00 1.0000000000000000e+00
2 8.9000000000000001e-01 0.0000000000000000e+00 4.5000000000000001e-01
3 2.8000000000000003e-01 8.4999999999999998e-01 4.5000000000000001e-01
4 7.1999999999999997e-01 5.3000000000000003e-01 -4.5000000000000001e-01
5 -2.8000000000000003e-01 8.4999999999999998e-01 -4.5000000000000001e-01
6 0.0000000000000000e+00 0.0000000000000000e+00 -1.0000000000000000e+00
7 -8.9000000000000001e-01 0.0000000000000000e+00 -4.5000000000000001e-01
8 -2.8000000000000003e-01 -8.4999999999999998e-01 -4.5000000000000001e-01
9 -7.1999999999999997e-01 -5.3000000000000003e-01 4.5000000000000001e-01
10 2.8000000000000003e-01 -8.4999999999999998e-01 4.5000000000000001e-01
11 7.1999999999999997e-01 -5.3000000000000003e-01 -4.5000000000000001e-01
12 -7.1999999999999997e-01 5.3000000000000003e-01 4.5000000000000001e-01
1 0 pt 1
2 0 pt 2
3 0 pt 3
4 0 pt 4
5 0 pt 5
6 0 pt 6
7 0 pt 7
8 0 pt 8
9 0 pt 9
10 0 pt 10
11 0 pt 11
12 0 pt 12
