12 30 0 0 0
1 0.0000000000000000e+00 0.0000000000000000e+00 1.0000000000000000e+00
2 8.9000000000000001e-01 0.0000000000000000e+00 4.5000000000000001e-01
3 2.8000000000000003e-01 8.4999999999999998e-01 4.5000000000000001e-01
4 7.1999999999999997e-01 5.3000000000000003e-01 -4.5000000000000001e-01
5 -2.8000000000000003e-01 8.4999999999999998e-01 -4.5000000000000001e-01
6 0.0000000000000000e+00 0.0000000000000000e+00 -1.0000000000000000e+00
7 -8.9000000000000001e-01 0.0000000000000000e+00 -4.5000000000000001e-01
8 -2.8000000000000003e-01 -8.4999999999999998e-01 -4.5000000000000001e-01
9 -7.1999999999999997e-01 -5.3000000000000003e-01 4.5000000000000001e-01
10 2.8000000000000003e-01 -8.4999999999999998e-01 4.5000000000000001e-01
11 7.1999999999999997e-01 -5.3000000000000003e-01 -4.5000000000000001e-01
12 -7.1999999999999997e-01 5.3000000000000003e-01 4.5000000000000001e-01
1 0 line 1 2
2 0 line 1 3
3 0 line 1 9
4 0 line 1 10
5 0 line 1 12
6 0 line 2 3
7 0 line 2 4
8 0 line 2 10
9 0 line 2 11
10 0 line 3 4
11 0 line 3 5
12 0 line 3 12
13 0 line 4 5
14 0 line 4 6
15 0 line 4 11
16 0 line 5 6
17 0 line 5 7
18 0 line 5 12
19 0 line 6 7
20 0 line 6 8
21 0 line 6 11
22 0 line 7 8
23 0 line 7 9
24 0 line 7 12
25 0 line 8 9
26 0 line 8 10
27 0 line 8 11
28 0 line 9 10
29 0 line 9 12
30 0 line 10 11
