12 20 0 0 0
1 0.0000000000000000e+00 0.0000000000000000e+00 1.0000000000000000e+00
2 8.9000000000000001e-01 0.0000000000000000e+00 4.5000000000000001e-01
3 2.8000000000000003e-01 8.4999999999999998e-01 4.5000000000000001e-01
4 7.1999999999999997e-01 5.3000000000000003e-01 -4.5000000000000001e-01
5 -2.8000000000000003e-01 8.4999999999999998e-01 -4.5000000000000001e-01
6 0.0000000000000000e+00 0.0000000000000000e+00 -1.0000000000000000e+00
7 -8.9000000000000001e-01 0.0000000000000000e+00 -4.5000000000000001e-01
8 -2.8000000000000003e-01 -8.4999999999999998e-01 -4.5000000000000001e-01
9 -7.1999999999999997e-01 -5.3000000000000003e-01 4.5000000000000001e-01
10 2.8000000000000003e-01 -8.4999999999999998e-01 4.5000000000000001e-01
11 7.1999999999999997e-01 -5.3000000000000003e-01 -4.5000000000000001e-01
12 -7.1999999999999997e-01 5.3000000000000003e-01 4.5000000000000001e-01
1 0 tri 1 2 3
2 0 tri 1 2 10
3 0 tri 1 3 12
4 0 tri 1 9 10
5 0 tri 1 9 12
6 0 tri 2 3 4
7 0 tri 2 4 11
8 0 tri 2 10 11
9 0 tri 3 4 5
10 0 tri 3 5 12
11 0 tri 4 5 6
12 0 tri 4 6 11
13 0 tri 5 6 7
14 0 tri 5 7 12
15 0 tri 6 7 8
16 0 tri 6 8 11
17 0 tri 7 8 9
18 0 tri 7 9 12
19 0 tri 8 9 10
20 0 tri 8 10 11
